 0  44  71  62  39  53  73  22 
44   0  49  55  43  25  29  37 
71  49   0  28  67  75  36  84 
62  55  28   0  27  80  47  83 
39  43  67  27   0  63  70  61 
53  25  75  80  63   0  33  35 
73  29  36  47  70  33   0  65 
22  37  84  83  61  35  65   0 